p cnf 126 451
2 -3 -4 0
-2 3 -4 0
2 3 4 0
-2 -3 4 0
-6 5 0
-6 1 0
-5 -1 6 0
-6 7 -8 0
6 -7 -8 0
-6 -7 8 0
6 7 8 0
-9 -4 0
-9 -8 0
4 8 9 0
10 1 0
10 9 0
-1 -9 -10 0
13 -12 0
13 -8 0
12 8 -13 0
-14 -13 0
-14 -2 0
13 2 14 0
-15 -11 0
-15 14 0
11 -14 15 0
16 10 0
16 -15 0
-10 15 -16 0
-17 18 -19 0
17 -18 -19 0
-17 -18 19 0
17 18 19 0
19 -18 -20 0
-19 18 -20 0
19 18 20 0
-19 -18 20 0
21 7 0
21 20 0
-7 -20 -21 0
22 -12 0
22 -21 0
12 21 -22 0
23 -2 0
23 7 0
2 -7 -23 0
24 -23 0
24 -12 0
23 12 -24 0
-24 20 -25 0
24 -20 -25 0
-24 -20 25 0
24 20 25 0
-21 25 -26 0
21 -25 -26 0
-21 -25 26 0
21 25 26 0
-6 -26 -27 0
6 26 -27 0
-6 26 27 0
6 -26 27 0
-28 4 -29 0
28 -4 -29 0
-28 -4 29 0
28 4 29 0
31 -11 0
31 -7 0
11 7 -31 0
-30 31 -32 0
30 -31 -32 0
-30 -31 32 0
30 31 32 0
33 29 0
33 32 0
-29 -32 -33 0
-35 34 0
-35 25 0
-34 -25 35 0
33 35 -36 0
-33 -35 -36 0
33 -35 36 0
-33 35 36 0
-37 27 0
-37 -36 0
-27 36 37 0
38 22 0
38 -37 0
-22 37 -38 0
-39 16 0
-39 -38 0
-16 38 39 0
33 35 -40 0
-33 -35 -40 0
33 -35 40 0
-33 35 40 0
40 -31 -41 0
-40 31 -41 0
40 31 41 0
-40 -31 41 0
-29 25 -42 0
29 -25 -42 0
-29 -25 42 0
29 25 42 0
-42 33 -43 0
42 -33 -43 0
-42 -33 43 0
42 33 43 0
-44 9 0
-44 43 0
-9 -43 44 0
45 -41 0
45 44 0
41 -44 -45 0
28 2 -46 0
-28 -2 -46 0
28 -2 46 0
-28 2 46 0
47 -12 0
47 -46 0
12 46 -47 0
48 13 0
48 47 0
-13 -47 -48 0
-49 48 0
-49 17 0
-48 -17 49 0
45 49 -50 0
-45 -49 -50 0
45 -49 50 0
-45 49 50 0
-34 51 0
34 51 0
-52 -29 0
-52 51 0
29 -51 52 0
-53 -31 0
-53 -52 0
31 52 53 0
-28 1 -54 0
28 -1 -54 0
-28 -1 54 0
28 1 54 0
55 28 0
55 19 0
-28 -19 -55 0
56 54 0
56 -55 0
-54 55 -56 0
-57 53 0
-57 -56 0
-53 56 57 0
-58 50 0
-58 57 0
-50 -57 58 0
59 -39 0
59 58 0
39 -58 -59 0
-60 -3 0
-60 -18 0
3 18 60 0
-61 60 0
-61 11 0
-60 -11 61 0
-62 -61 0
-62 23 0
61 -23 62 0
63 -62 0
63 -3 0
62 3 -63 0
-64 -19 0
-64 2 0
19 -2 64 0
-20 -64 -65 0
20 64 -65 0
-20 64 65 0
20 -64 65 0
-66 63 0
-66 65 0
-63 -65 66 0
-67 11 0
-67 -13 0
-11 13 67 0
61 -11 -68 0
-61 11 -68 0
61 11 68 0
-61 -11 68 0
2 6 -69 0
-2 -6 -69 0
2 -6 69 0
-2 6 69 0
70 -68 0
70 -69 0
68 69 -70 0
71 -67 0
71 -70 0
67 70 -71 0
-34 71 -72 0
34 -71 -72 0
-34 -71 72 0
34 71 72 0
23 4 -73 0
-23 -4 -73 0
23 -4 73 0
-23 4 73 0
74 -25 0
74 -34 0
25 34 -74 0
73 -74 -75 0
-73 74 -75 0
73 74 75 0
-73 -74 75 0
68 11 -76 0
-68 -11 -76 0
68 -11 76 0
-68 11 76 0
-77 76 0
-77 3 0
-76 -3 77 0
-78 -75 0
-78 -77 0
75 77 78 0
79 -72 0
79 78 0
72 -78 -79 0
66 79 -80 0
-66 -79 -80 0
66 -79 80 0
-66 79 80 0
26 -8 -81 0
-26 8 -81 0
26 8 81 0
-26 -8 81 0
68 -31 -82 0
-68 31 -82 0
68 31 82 0
-68 -31 82 0
-81 -82 -83 0
81 82 -83 0
-81 82 83 0
81 -82 83 0
84 31 0
84 17 0
-31 -17 -84 0
85 84 0
85 -76 0
-84 76 -85 0
86 -83 0
86 85 0
83 -85 -86 0
87 -12 0
87 -19 0
12 19 -87 0
-52 87 -88 0
52 -87 -88 0
-52 -87 88 0
52 87 88 0
11 34 -89 0
-11 -34 -89 0
11 -34 89 0
-11 34 89 0
-90 88 0
-90 89 0
-88 -89 90 0
92 -91 0
92 -5 0
91 5 -92 0
93 90 0
93 -92 0
-90 92 -93 0
51 46 -94 0
-51 -46 -94 0
51 -46 94 0
-51 46 94 0
95 -11 0
95 -28 0
11 28 -95 0
96 26 0
96 -95 0
-26 95 -96 0
-97 35 0
-97 91 0
-35 -91 97 0
-98 -96 0
-98 97 0
96 -97 98 0
-99 -94 0
-99 -98 0
94 98 99 0
100 -93 0
100 99 0
93 -99 -100 0
86 100 -101 0
-86 -100 -101 0
86 -100 101 0
-86 100 101 0
-102 -80 0
-102 101 0
80 -101 102 0
-104 -103 0
-104 -34 0
103 34 104 0
-17 105 0
17 105 0
-106 104 0
-106 -105 0
-104 105 106 0
107 35 0
107 3 0
-35 -3 -107 0
106 107 -108 0
-106 -107 -108 0
106 -107 108 0
-106 107 108 0
109 -8 0
109 -25 0
8 25 -109 0
109 -69 -110 0
-109 69 -110 0
109 69 110 0
-109 -69 110 0
-111 -3 0
-111 30 0
3 -30 111 0
-18 111 -112 0
18 -111 -112 0
-18 -111 112 0
18 111 112 0
-46 -43 -113 0
46 43 -113 0
-46 43 113 0
46 -43 113 0
-112 -113 -114 0
112 113 -114 0
-112 113 114 0
112 -113 114 0
115 110 0
115 114 0
-110 -114 -115 0
-116 -108 0
-116 115 0
108 -115 116 0
102 -116 -117 0
-102 116 -117 0
102 116 117 0
-102 -116 117 0
-59 -117 -118 0
59 117 -118 0
-59 117 118 0
59 -117 118 0
24 11 -119 0
-24 -11 -119 0
24 -11 119 0
-24 11 119 0
119 -3 -120 0
-119 3 -120 0
119 3 120 0
-119 -3 120 0
-121 -11 0
-121 -19 0
11 19 121 0
-122 -2 0
-122 -121 0
2 121 122 0
123 120 0
123 122 0
-120 -122 -123 0
124 -118 0
124 123 0
118 -123 -124 0
-125 5 0
-125 13 0
-5 -13 125 0
126 -124 0
126 -125 0
124 125 -126 0
45 -40 -43 -35 -72 0
-79 -49 -77 -50 -66 0
124 -60 87 28 0
-7 -92 59 48 64 65 0
-94 -121 0
60 19 -119 66 0
12 71 81 35 -10 23 0
-116 2 122 0
-57 71 0
-82 25 -94 13 43 0
20 -125 -14 -101 97 67 0
86 -12 0
88 68 109 -54 0
106 -28 123 58 0
-33 -64 -81 122 -23 0
12 -82 0
47 121 110 -6 -18 0
95 7 124 -26 0
-67 -33 0
41 23 -47 80 98 -86 0
-114 115 0
-42 -31 75 0
48 -26 91 89 -24 0
-99 53 83 15 59 -74 0
-16 -17 -101 75 -55 -45 0
125 105 -52 0
-86 23 0
97 81 80 -62 0
80 -22 71 92 0
81 -48 0
38 -34 -75 121 0
-60 -2 34 -42 0
84 -63 0
48 10 -111 20 0
-63 -11 -50 -92 0
-107 -105 115 0
-76 -126 0
-88 -67 117 76 0
-40 -103 -20 0
-24 56 41 3 -73 0
2 -31 -83 51 0
89 -33 -108 75 107 0
120 -83 0
7 -2 -125 0
5 -116 -65 -115 31 -108 0
-25 48 0
98 29 -45 0
-47 107 0
-95 -93 -15 -79 70 0
-121 -103 112 -54 -99 0
75 3 -29 -95 -107 39 0
-112 29 0
97 -104 21 -75 5 0
72 15 101 87 -28 0
-2 119 93 113 -36 25 0
70 -125 100 -85 0
50 123 0
3 80 -13 -36 -46 -70 0
125 -51 -57 0
6 -30 50 19 -25 0
89 25 -84 41 -104 50 0
40 50 81 44 -75 8 0
80 42 28 -29 59 -88 0
-88 18 12 0
-76 -74 -88 -60 100 0
-94 -116 -125 -126 3 50 0
-50 103 85 105 64 0
40 -106 25 -43 32 -101 0
-67 -66 -33 60 -125 0
22 59 0
47 104 90 0
-58 111 100 0
44 -7 0
52 101 -28 -124 102 30 0
-9 55 115 0
126 0
